%chk=reactant_complex.chk
%mem=32GB
%nprocshared=16
#p B3LYP/def2SVP em=GD3BJ SCRF=(PCM,Solvent=Acetone) Opt=CalcFC Freq Pop=NBO

reactant_complex

0 1
O      2.80437086    -0.77183926    -1.56940132
C      2.01339387    -0.73941723    -0.61954802
C      0.71146367    -1.37194865    -0.60759578
C     -0.12688829    -1.29797100     0.47840514
C     -1.50141103    -1.90258188     0.46993673
C     -2.46787798    -1.09628897    -0.40915951
C     -2.50249230     0.38500497    -0.01639760
C     -1.32718974     1.13233875    -0.62009410
O     -1.06503029     1.05069367    -1.80285583
C     -0.53364301     1.96689214     0.30792730
C      0.64965231     2.45831758    -0.04632801
C      2.30548353    -0.05977844     0.61636371
O      1.50260674    -0.04236437     1.64349789
C      0.32277256    -0.60990919     1.60865434
H      0.41447138    -1.90341320    -1.49939975
H     -1.44760815    -2.92120600     0.08298379
H     -1.88663043    -1.94089922     1.48996974
H     -3.46446004    -1.52859686    -0.31412466
H     -2.16428070    -1.16363190    -1.45528174
H     -2.52960494     0.49799562     1.06669657
H     -3.40502051     0.83730121    -0.43548943
H     -0.95162445     2.14855264     1.28749977
H      1.04741166     2.25862198    -1.02896262
H      1.24852376     3.06032121     0.61563473
H      3.24488740     0.45167490     0.76940771
H     -0.23530286    -0.51828551     2.52687896

