%chk=conf_000.chk
%mem=4GB
%nprocshared=4
#p HF/STO-3G SCRF=(PCM,Solvent=Acetone) Opt=CalcFC Freq

butadiene_conf_000

0 1
C      1.82919152     0.11739824    -0.00012910
C      0.60426633    -0.39866747     0.00015309
C     -0.60423241     0.39867174    -0.00006386
C     -1.82922176    -0.11740335     0.00000712
H      2.71001976    -0.50190102    -0.00124026
H      1.99199221     1.18324807     0.00165983
H      0.46544823    -1.47248962     0.00047980
H     -0.46538902     1.47248212    -0.00011775
H     -2.71006888     0.50186158    -0.00056284
H     -1.99204608    -1.18319118     0.00017151

