%chk=conf_001.chk
%mem=4GB
%nprocshared=4
#p HF/STO-3G SCRF=(PCM,Solvent=Acetone) Opt=CalcFC Freq

butadiene_conf_001

0 1
C      1.51609421    -0.02885613     0.51422616
C      0.72188045    -0.09410043    -0.54870860
C     -0.72185954     0.09384958    -0.54873252
C     -1.51611493     0.02910495     0.51424271
H      2.57932802    -0.17870845     0.43383738
H      1.13815251     0.18729890     1.49906644
H      1.15792495    -0.28554133    -1.52194698
H     -1.15793828     0.28419658    -1.52214808
H     -2.57936496     0.17875988     0.43376172
H     -1.13810451    -0.18598135     1.49931066

