%chk=checkpoint.chk
%mem=4GB
%nprocshared=4
#p B3LYP/def2-SVP Opt=(CalcFC,MaxCycles=50) Freq

RPH_Auto_Job

0 1
O      0.00000000     0.00000000     0.11700000
H      0.00000000     0.75700000    -0.46900000
H      0.00000000    -0.75700000    -0.46900000


