%chk=conf_001.chk
%nprocshared=16
%mem=32GB
#p B3LYP/def2SVP em=GD3BJ Opt SCF=(XQC,MaxCycle=256) Freq

-41.88394519

0 1
 O          2.7645385022        0.3788059843        1.5285208994
 C          1.9066529386        0.4330743247        0.6676992604
 C          0.7264899150        1.2907814968        0.7483587551
 C         -0.2342430733        1.2122299184       -0.1843291809
 C         -1.5622095055        1.8873084122       -0.1275823438
 C         -2.6713108040        0.9042569184       -0.5241769727
 C         -2.6324043123       -0.3625844970        0.3308483694
 C         -1.2954920984       -1.0548750204        0.4898739741
 O         -1.0054160568       -1.5756090401        1.5420028646
 C         -0.3679987875       -1.1547513231       -0.7223485577
 C          1.0182111269       -1.6909355078       -0.3359169218
 C          1.9372484852       -0.4674118630       -0.5669924042
 O          1.3453907236        0.1870860222       -1.6686513176
 C         -0.0147591422        0.2481573462       -1.3192187034
 H          0.6466450760        1.9387100721        1.6090960334
 H         -1.7361713736        2.2777210413        0.8761125891
 H         -1.5663164557        2.7302718157       -0.8243925885
 H         -2.5884944261        0.6478637248       -1.5799251464
 H         -3.6396204349        1.3858829125       -0.3820834098
 H         -3.3146923939       -1.1058887927       -0.0929855940
 H         -2.9853922863       -0.1444980386        1.3418105403
 H         -0.8531663351       -1.7827627073       -1.4726501205
 H          1.0425451056       -2.0302574127        0.6988670193
 H          1.3258977672       -2.5038473063       -0.9907437432
 H          2.9639488461       -0.7365063895       -0.8182824314
 H         -0.5640346013        0.5123693961       -2.2213338517


