%chk=conf_001.chk
%nprocshared=16
%mem=32GB
# B3LYP/def2-SVP EmpiricalDispersion=GD3BJ Opt Freq

-41.88394261

0 1
 O          2.7705757076        0.3849162546        1.5250885759
 C          1.9101853786        0.4369382313        0.6667687265
 C          0.7276798931        1.2910462717        0.7507638213
 C         -0.2346441873        1.2111365645       -0.1801856865
 C         -1.5638095731        1.8837052164       -0.1189387606
 C         -2.6723111599        0.9036548548       -0.5237718949
 C         -2.6357977279       -0.3689664747        0.3231871532
 C         -1.2982195358       -1.0589645287        0.4861170897
 O         -1.0109594028       -1.5809245441        1.5384401359
 C         -0.3664795610       -1.1546378523       -0.7229667052
 C          1.0200055593       -1.6879578905       -0.3331545846
 C          1.9385544786       -0.4643923806       -0.5671900412
 O          1.3450114676        0.1900792983       -1.6678749932
 C         -0.0148426444        0.2496164445       -1.3173260727
 H          0.6476070093        1.9378161799        1.6124154825
 H         -1.7384018235        2.2657947192        0.8880090520
 H         -1.5684139011        2.7325982434       -0.8084810682
 H         -2.5878584028        0.6539619513       -1.5809124154
 H         -3.6407331021        1.3845458691       -0.3803736235
 H         -3.3137091276       -1.1108372286       -0.1100091933
 H         -2.9953911364       -0.1583079580        1.3333025392
 H         -0.8470877647       -1.7828970573       -1.4759286896
 H          1.0430965385       -2.0232474278        0.7029716324
 H          1.3288310835       -2.5034781949       -0.9841835985
 H          2.9646286286       -0.7338247091       -0.8205595462
 H         -0.5648613605        0.5153243924       -2.2185078545


