%chk=conf_000.chk
%nprocshared=16
%mem=32GB
#p B3LYP/def2SVP em=GD3BJ Opt SCF=(XQC,MaxCycle=256) Freq

-41.88650947

0 1
 O          2.7729629868        0.5429821130        1.5135609761
 C          1.9242612559        0.5177952778        0.6430735645
 C          0.7292859600        1.3580090132        0.6415793122
 C         -0.2196464449        1.1904586095       -0.2909406860
 C         -1.5377000688        1.8898011951       -0.2834618820
 C         -2.5896455923        1.0285510905        0.4356306320
 C         -2.6405938368       -0.4061293112       -0.1115452025
 C         -1.3939011305       -1.1489524675        0.3175586069
 O         -1.2752972542       -1.6172854835        1.4235868111
 C         -0.2983667504       -1.2446291388       -0.7313910769
 C          1.0642129678       -1.6753210569       -0.1733679183
 C          1.9763808277       -0.4709030383       -0.5195118521
 O          1.3917981931        0.0906602020       -1.6765182207
 C          0.0228661022        0.1508954065       -1.3565248902
 H          0.6380324831        2.0877829924        1.4329703781
 H         -1.4518636252        2.8451621860        0.2351921046
 H         -1.8632202620        2.0739879055       -1.3090018129
 H         -3.5679888405        1.4946098286        0.3142583221
 H         -2.3597342335        0.9870899681        1.5018594373
 H         -2.7418905777       -0.3949862226       -1.1959386075
 H         -3.5014453877       -0.9120640099        0.3293349487
 H         -0.6410509431       -1.9283266616       -1.5123960008
 H          1.0149123363       -1.8515326347        0.9012139603
 H          1.4320031021       -2.5742998248       -0.6634909960
 H          3.0065113836       -0.7515039888       -0.7417795796
 H         -0.5241460663        0.3626840957       -2.2756967650


