%chk=ts_guess.chk
%mem=32GB
%nprocshared=16
#p Opt=(TS, CalcFC, NoEigenTest) Freq

ts_guess

0 1
O      2.74130962    -0.45931936    -1.59512698
C      1.94722621    -0.50552819    -0.65798441
C      0.74248695    -1.31314410    -0.63758549
C     -0.15658589    -1.18985789     0.37491523
C     -1.48829209    -1.88025124     0.39556000
C     -2.54696976    -1.08368282    -0.38276823
C     -2.56165191     0.39281559     0.03099456
C     -1.30815839     1.04985190    -0.51563585
O     -1.10486273     1.10517780    -1.71213060
C     -0.33693193     1.56921818     0.46894868
C      0.90235580     1.99628697     0.01596222
C      2.14593012     0.27339838     0.56591221
O      1.43304598     0.04302206     1.66693432
C      0.17498537    -0.32427294     1.46238599
H      0.58348167    -1.99278182    -1.46011227
H     -1.39252080    -2.86845585    -0.05546984
H     -1.81861106    -1.99970079     1.42870490
H     -3.52547285    -1.53123159    -0.20642679
H     -2.33200972    -1.13415419    -1.45153823
H     -2.63079463     0.49410181     1.11276948
H     -3.42439383     0.87674338    -0.43089855
H     -0.72412550     1.91607759     1.41555338
H      1.10626025     1.95583272    -1.04147126
H      1.49774547     2.67324533     0.60455559
H      3.13281661     0.67049511     0.76484859
H     -0.40028998    -0.35430304     2.37832136

