%chk=conf_003.chk
%mem=32GB
%nprocshared=16
#p B3LYP/def2SVP em=GD3BJ SCRF=(PCM,Solvent=Acetone) Opt=CalcFC Freq

product_conf_003

0 1
O      2.90369875     0.98820736     1.36173322
C      2.01441887     0.75896457     0.56539868
C      0.79206506     1.54804508     0.44334200
C     -0.17777900     1.16618716    -0.40255729
C     -1.56984192     1.70012031    -0.37446775
C     -2.37127945     1.03879682     0.77507339
C     -1.77790432    -0.29562546     1.26393039
C     -1.59920225    -1.27273497     0.12573782
O     -2.50478227    -1.97935621    -0.25242393
C     -0.25843356    -1.31907230    -0.58324821
C      1.01118363    -1.51836514     0.26185887
C      2.00274369    -0.47363214    -0.33612486
O      1.46188912    -0.12257265    -1.59250379
C      0.08851058     0.01017177    -1.32579878
H      0.67634671     2.39099009     1.10894618
H     -1.55694979     2.77977633    -0.22493033
H     -2.05872868     1.49011035    -1.32647163
H     -3.39412046     0.86970765     0.43885427
H     -2.40349966     1.71017258     1.63329875
H     -2.48250009    -0.73472451     1.97297365
H     -0.83407341    -0.10898051     1.77286787
H     -0.32157670    -2.10834029    -1.33803642
H      0.85329747    -1.33956751     1.32458939
H      1.40202235    -2.52626106     0.14069589
H      3.01124174    -0.86279237    -0.48016868
H     -0.43728503     0.11678954    -2.27577292

