%chk=conf_001.chk
%mem=32GB
%nprocshared=16
#p B3LYP/def2SVP em=GD3BJ SCRF=(PCM,Solvent=Acetone) Opt=CalcFC Freq

product_conf_001

0 1
O      2.76766224     0.38002232     1.52701497
C      1.90877523     0.43381301     0.66716527
C      0.72801539     1.29059661     0.74919757
C     -0.23374195     1.21150976    -0.18236932
C     -1.56201064     1.88594241    -0.12290362
C     -2.67153324     0.90548164    -0.52403901
C     -2.63491161    -0.36510381     0.32604349
C     -1.29744005    -1.05559286     0.48800746
O     -1.00834938    -1.57488582     1.54104980
C     -0.36798190    -1.15476102    -0.72259452
C      1.01810392    -1.69028522    -0.33446381
C      1.93769587    -0.46726860    -0.56704141
O      1.34531487     0.18727186    -1.66834475
C     -0.01463711     0.24850290    -1.31837496
H      0.64832019     1.93783853     1.61051077
H     -1.73593233     2.27142672     0.88277153
H     -1.56607512     2.73263783    -0.81512912
H     -2.58825646     0.65308911    -1.58065120
H     -3.63946936     1.38745054    -0.38074315
H     -3.31398995    -1.10761161    -0.10433864
H     -2.99277868    -0.15196768     1.33626819
H     -0.85134432    -1.78272411    -1.47405330
H      1.04153710    -2.02757719     0.70094477
H      1.32592019    -2.50473506    -0.98731184
H      2.96387946    -0.73742223    -0.81938197
H     -0.56425820     0.51369828    -2.21997058

