%chk=conf_002.chk
%mem=32GB
%nprocshared=16
#p B3LYP/def2SVP em=GD3BJ SCRF=(PCM,Solvent=Acetone) Opt=CalcFC Freq

product_conf_002

0 1
O      3.02214546     0.84609263     1.30746558
C      2.07712454     0.70274454     0.55699213
C      0.88810439     1.54970028     0.55185907
C     -0.13531543     1.28348950    -0.27335154
C     -1.44920210     1.98348970    -0.23194339
C     -2.57827163     0.95063238    -0.10656735
C     -2.23471562    -0.14547109     0.91232380
C     -1.56606645    -1.35985682     0.31078211
O     -1.98172471    -2.47298545     0.53949541
C     -0.34191144    -1.20646723    -0.57426320
C      0.96360176    -1.48815088     0.20345120
C      1.95781882    -0.46604306    -0.41805065
O      1.35112413    -0.02615188    -1.61449565
C     -0.00298829     0.14833969    -1.24950670
H      0.86090518     2.36990954     1.25476207
H     -1.47181501     2.67028477     0.61503018
H     -1.58763509     2.56520480    -1.14633721
H     -2.78811465     0.49185593    -1.07366931
H     -3.48417457     1.46387958     0.21556120
H     -3.14022327    -0.50517178     1.40528279
H     -1.57493394     0.26066830     1.68323817
H     -0.43122124    -1.95478943    -1.36846446
H      0.84743868    -1.31585659     1.27432496
H      1.30306876    -2.51024780     0.05631600
H      2.93528038    -0.88973856    -0.65077426
H     -0.57172647     0.32826989    -2.16268069

