%chk=conf_000.chk
%mem=32GB
%nprocshared=16
#p B3LYP/def2SVP em=GD3BJ SCRF=(PCM,Solvent=Acetone) Opt=CalcFC Freq

product_conf_000

0 1
O      2.77221872     0.54199330     1.51441484
C      1.92395749     0.51749845     0.64353600
C      0.72935408     1.35815520     0.64182533
C     -0.21940609     1.19100665    -0.29095351
C     -1.53753276     1.89010066    -0.28313839
C     -2.58882449     1.02871673     0.43667723
C     -2.64052142    -0.40560766    -0.11129328
C     -1.39387209    -1.14898819     0.31692036
O     -1.27562037    -1.61920406     1.42221255
C     -0.29838489    -1.24413333    -0.73210780
C      1.06401206    -1.67531771    -0.17403352
C      1.97626134    -0.47075074    -0.51939685
O      1.39205766     0.09133905    -1.67636079
C      0.02305078     0.15158885    -1.35662913
H      0.63779335     2.08731844     1.43367057
H     -1.45158763     2.84565977     0.23512672
H     -1.86364572     2.07382185    -1.30855643
H     -3.56723959     1.49484802     0.31666687
H     -2.35770969     0.98664276     1.50262509
H     -2.74229352    -0.39370530    -1.19562507
H     -3.50137487    -0.91149544     0.32965716
H     -0.64111363    -1.92745487    -1.51343453
H      1.01447551    -1.85217651     0.90040086
H      1.43173145    -2.57404296    -0.66466606
H      3.00646142    -0.75126617    -0.74140721
H     -0.52376326     0.36373433    -2.27583937

