%chk=conf_001.chk
%mem=32GB
%nprocshared=16
#p B3LYP/def2SVP em=GD3BJ SCRF=(PCM,Solvent=Acetone) Opt=CalcFC Freq

product_conf_001

0 1
O      2.76799893     0.37984894     1.52681759
C      1.90891725     0.43367352     0.66715517
C      0.72813318     1.29039778     0.74946188
C     -0.23370192     1.21151430    -0.18205439
C     -1.56191149     1.88601328    -0.12245858
C     -2.67142465     0.90570305    -0.52428218
C     -2.63487646    -0.36506372     0.32547736
C     -1.29748339    -1.05554538     0.48789741
O     -1.00863140    -1.57503767     1.54090860
C     -0.36793092    -1.15475308    -0.72259210
C      1.01802672    -1.69029525    -0.33426906
C      1.93758142    -0.46728240    -0.56711464
O      1.34508661     0.18739794    -1.66828620
C     -0.01480707     0.24864991    -1.31821147
H      0.64845010     1.93739473     1.61095953
H     -1.73584217     2.27113892     0.88336574
H     -1.56576821     2.73302661    -0.81436360
H     -2.58798402     0.65363544    -1.58096583
H     -3.63943070     1.38748135    -0.38101279
H     -3.31374260    -1.10743805    -0.10541298
H     -2.99307406    -0.15206000     1.33563613
H     -0.85122912    -1.78266705    -1.47411201
H      1.04151488    -2.02744013     0.70124056
H      1.32576279    -2.50473799    -0.98718407
H      2.96382060    -0.73708945    -0.81955883
H     -0.56441875     0.51390853    -2.21978601

