%chk=conf_000.chk
%nprocshared=16
%mem=32GB
# B3LYP/def2-SVP EmpiricalDispersion=GD3BJ Opt Freq

-41.88650811

0 1
 O          2.7683116815        0.5416088651        1.5171564207
 C          1.9217003829        0.5186767904        0.6445596907
 C          0.7263972058        1.3582032254        0.6429235217
 C         -0.2214007339        1.1911124531       -0.2908758464
 C         -1.5403984649        1.8885135605       -0.2833421913
 C         -2.5896744546        1.0256094331        0.4374898632
 C         -2.6392611634       -0.4090326355       -0.1099553665
 C         -1.3909571821       -1.1506480438        0.3166020061
 O         -1.2699928147       -1.6195598072        1.4220963541
 C         -0.2966235194       -1.2439264919       -0.7340550139
 C          1.0664235582       -1.6746829058       -0.1775310510
 C          1.9765211009       -0.4676250657       -0.5199738842
 O          1.3922606223        0.0953222470       -1.6764054819
 C          0.0230030758        0.1529029783       -1.3573549816
 H          0.6327820571        2.0853205095        1.4362972685
 H         -1.4558736695        2.8446454033        0.2341108108
 H         -1.8670245589        2.0709537501       -1.3089787246
 H         -3.5689129775        1.4901454228        0.3179225176
 H         -2.3577260488        0.9843632470        1.5032821679
 H         -2.7426317429       -0.3974812291       -1.1940845857
 H         -3.4985201056       -0.9164215585        0.3323707368
 H         -0.6395112169       -1.9266944933       -1.5157752223
 H          1.0176449045       -1.8548815190        0.8963705591
 H          1.4354620002       -2.5713482453       -0.6710755507
 H          3.0074442954       -0.7457392813       -0.7414558741
 H         -0.5237589024        0.3652662927       -2.2765382537


