%chk=reactant_raw_stretched.chk
%mem=32GB
%nprocshared=16
#p B3LYP/def2SVP em=GD3BJ SCRF=(PCM,Solvent=Acetone) Opt=CalcFC Freq

reactant_raw_stretched

0 1
O      2.93258600    -0.67839800    -1.43445900
C      2.04891400    -0.58406300    -0.59853600
C      0.86796500    -1.46479900    -0.55394100
C     -0.12595700    -1.21891400     0.32902600
C     -1.46057100    -1.90171500     0.31303400
C     -2.53781400    -1.05870000    -0.40356400
C     -2.64122400     0.40189300     0.08235600
C     -1.42459200     1.20392300    -0.35168300
O     -1.37926700     1.72989400    -1.44505200
C     -0.47054742     2.12371147     0.20132459
C      0.49883643     2.40656658    -0.26815303
C      2.62877457    -0.18787858     0.72291603
O      1.44674500     0.04141600     1.64796900
C      0.28492942    -0.92601647     1.74353541
H      0.80280500    -2.26385100    -1.29761700
H     -1.37880300    -2.87596400    -0.19128600
H     -1.78371700    -2.08829200     1.35106700
H     -3.51380100    -1.54838900    -0.26534200
H     -2.33242000    -1.05132900    -1.48609200
H     -2.76244100     0.43292200     1.17707100
H     -3.52333600     0.86964700    -0.37804200
H     -0.56571800     1.99289200     1.41338900
H      1.02057000     1.79094300    -1.08276100
H      1.44975500     2.63576600     0.42131100
H      3.06468200     0.85620100     0.65144100
H     -0.49037800    -0.25788700     2.24130100

