%chk=conf_000.chk
%mem=32GB
%nprocshared=16
#p B3LYP/def2SVP em=GD3BJ SCRF=(PCM,Solvent=Acetone) Opt=CalcFC Freq

product_conf_000

0 1
O      2.77234453     0.54199480     1.51434693
C      1.92403007     0.51743764     0.64352132
C      0.72957827     1.35831321     0.64165071
C     -0.21927469     1.19106847    -0.29101278
C     -1.53738358     1.89018415    -0.28312482
C     -2.58879995     1.02893878     0.43666552
C     -2.64056378    -0.40537816    -0.11131539
C     -1.39412197    -1.14916642     0.31683936
O     -1.27586745    -1.61920653     1.42220321
C     -0.29846771    -1.24414752    -0.73202579
C      1.06388310    -1.67534996    -0.17383118
C      1.97624374    -0.47091833    -0.51933681
O      1.39208155     0.09110081    -1.67634911
C      0.02308392     0.15153009    -1.35659979
H      0.63800111     2.08742071     1.43355700
H     -1.45139659     2.84568121     0.23522633
H     -1.86343298     2.07403099    -1.30853380
H     -3.56714667     1.49520615     0.31668848
H     -2.35765353     0.98674827     1.50261841
H     -2.74243892    -0.39348416    -1.19563987
H     -3.50146849    -0.91110639     0.32968437
H     -0.64111886    -1.92753760    -1.51331357
H      1.01430504    -1.85203748     0.90062795
H      1.43158626    -2.57415228    -0.66431707
H      3.00637317    -0.75164573    -0.74139339
H     -0.52368130     0.36366143    -2.27583049

