%chk=conf_003.chk
%mem=32GB
%nprocshared=16
#p B3LYP/def2SVP em=GD3BJ SCRF=(PCM,Solvent=Acetone) Opt=CalcFC Freq

product_conf_003

0 1
O      2.90292953     0.98837022     1.36227558
C      2.01395601     0.75887435     0.56568113
C      0.79158151     1.54780801     0.44308079
C     -0.17786530     1.16565601    -0.40312932
C     -1.57054323     1.69803074    -0.37474774
C     -2.36863021     1.03963353     0.77862555
C     -1.77705874    -0.29657267     1.26490254
C     -1.59967365    -1.27179812     0.12488079
O     -2.50634115    -1.97603252    -0.25511321
C     -0.25856375    -1.31928902    -0.58355573
C      1.01106732    -1.51875076     0.26148105
C      2.00285669    -0.47381460    -0.33575694
O      1.46251688    -0.12294735    -1.59240628
C      0.08906899     0.00975642    -1.32630363
H      0.67530476     2.39058212     1.10878999
H     -1.55915290     2.77826537    -0.22931205
H     -2.06072585     1.48363824    -1.32508281
H     -3.39346791     0.87381522     0.44697806
H     -2.39479691     1.71123196     1.63686798
H     -2.48185323    -0.73617444     1.97344349
H     -0.83279602    -0.11196452     1.77375602
H     -0.32208347    -2.10861520    -1.33824166
H      0.85322382    -1.34064331     1.32432860
H      1.40198645    -2.52655482     0.13964386
H      3.01149781    -0.86277418    -0.47933109
H     -0.43639985     0.11626162    -2.27646533

