%chk=conf_001.chk
%mem=32GB
%nprocshared=16
#p B3LYP/def2SVP em=GD3BJ SCRF=(PCM,Solvent=Acetone) Opt=CalcFC Freq

product_conf_001

0 1
O      2.76813122     0.37993258     1.52674877
C      1.90896810     0.43360388     0.66716563
C      0.72823453     1.29042331     0.74935186
C     -0.23359955     1.21153636    -0.18214721
C     -1.56172772     1.88624023    -0.12267393
C     -2.67131082     0.90593703    -0.52429223
C     -2.63489157    -0.36469151     0.32566829
C     -1.29771096    -1.05566271     0.48791608
O     -1.00900564    -1.57539766     1.54087045
C     -0.36802109    -1.15478696    -0.72250282
C      1.01794776    -1.69030461    -0.33412091
C      1.93758591    -0.46740473    -0.56705859
O      1.34512605     0.18724299    -1.66827098
C     -0.01476252     0.24853197    -1.31820215
H      0.64867087     1.93763570     1.61069024
H     -1.73561493     2.27151229     0.88310591
H     -1.56550119     2.73313969    -0.81473287
H     -2.58789992     0.65371412    -1.58093333
H     -3.63925597     1.38784773    -0.38112357
H     -3.31413439    -1.10696870    -0.10485985
H     -2.99271453    -0.15134254     1.33588624
H     -0.85122686    -1.78272844    -1.47408122
H      1.04143854    -2.02738012     0.70139680
H      1.32574602    -2.50480663    -0.98692356
H      2.96378960    -0.73731902    -0.81948636
H     -0.56428085     0.51380629    -2.21980414

