%chk=conf_002.chk
%mem=32GB
%nprocshared=16
#p B3LYP/def2SVP em=GD3BJ SCRF=(PCM,Solvent=Acetone) Opt=CalcFC Freq

product_conf_002

0 1
O      3.02356636     0.84773183     1.30602005
C      2.07788481     0.70330470     0.55662746
C      0.88884582     1.55022957     0.55124340
C     -0.13494424     1.28332195    -0.27330051
C     -1.44893376     1.98321386    -0.23136778
C     -2.57807125     0.95055139    -0.10472329
C     -2.23352439    -0.14579419     0.91370195
C     -1.56712199    -1.36023773     0.30972880
O     -1.98533393    -2.47309921     0.53516207
C     -0.34181982    -1.20688441    -0.57370258
C      0.96304902    -1.48738690     0.20547195
C      1.95785298    -0.46644327    -0.41715683
O      1.35128897    -0.02719097    -1.61393360
C     -0.00280187     0.14780726    -1.24911430
H      0.86199572     2.37115560     1.25330385
H     -1.47083174     2.67047187     0.61528529
H     -1.58811229     2.56445711    -1.14597052
H     -2.78907408     0.49195352    -1.07168487
H     -3.48352150     1.46392540     0.21851183
H     -3.13852718    -0.50497282     1.40803483
H     -1.57205881     0.25982035     1.68347423
H     -0.42967944    -1.95549049    -1.36780540
H      0.84609060    -1.31305628     1.27596770
H      1.30250184    -2.50979925     0.06053750
H      2.93504624    -0.89085702    -0.64963422
H     -0.57151458     0.32757712    -2.16233911

