%chk=conf_002.chk
%nprocshared=16
%mem=32GB
# B3LYP/def2-SVP EmpiricalDispersion=GD3BJ Opt Freq

-41.88051068

0 1
 O          3.0261080480        0.8589747896        1.3026422514
 C          2.0794370072        0.7095224293        0.5555493616
 C          0.8885781765        1.5538700754        0.5487369617
 C         -0.1358587281        1.2823376048       -0.2735739654
 C         -1.4514177622        1.9792870870       -0.2291123613
 C         -2.5772350460        0.9445798460       -0.0888989852
 C         -2.2194621952       -0.1513295275        0.9263721637
 C         -1.5690152979       -1.3646254584        0.3034415261
 O         -2.0049017236       -2.4754131443        0.5040510313
 C         -0.3384512228       -1.2096040348       -0.5719860293
 C          0.9639500820       -1.4826371626        0.2133285310
 C          1.9590724850       -0.4641234889       -0.4134688132
 O          1.3524557399       -0.0283704701       -1.6116688200
 C         -0.0019980881        0.1456397339       -1.2478854853
 H          0.8605541616        2.3764474796        1.2488414523
 H         -1.4697546562        2.6718504061        0.6132286398
 H         -1.5974775515        2.5542726808       -1.1465544353
 H         -2.7972027227        0.4844736941       -1.0532325198
 H         -3.4803087218        1.4563745598        0.2430913482
 H         -3.1177173128       -0.5080500666        1.4342901609
 H         -1.5438202742        0.2528384759        1.6840372543
 H         -0.4186036233       -1.9594091890       -1.3656808522
 H          0.8431410502       -1.3006878661        1.2820979135
 H          1.3056461103       -2.5055548392        0.0769047077
 H          2.9360498011       -0.8895093139       -0.6448349954
 H         -0.5712183207        0.3235743863       -2.1611951395


