%chk=reactant_complex.chk
%mem=64GB
%nprocshared=16
#p B3LYP/def2SVP em=GD3BJ SCRF=(PCM,Solvent=Acetone) Opt=CalcFC Freq

reactant_complex

0 1
O      2.80437128    -0.77183825    -1.56940176
C      2.01339428    -0.73941653    -0.61954846
C      0.71146433    -1.37194844    -0.60759621
C     -0.12688761    -1.29797121     0.47840477
C     -1.50141011    -1.90258263     0.46993636
C     -2.46787746    -1.09628997    -0.40915966
C     -2.50249231     0.38500390    -0.01639752
C     -1.32719014     1.13233827    -0.62009406
O     -1.06503074     1.05069340    -1.80285583
C     -0.53364369     1.96689189     0.30792737
C      0.64965137     2.45831793    -0.04632801
C      2.30548376    -0.05977779     0.61636333
O      1.50260700    -0.04236406     1.64349753
C      0.32277303    -0.60990934     1.60865400
H      0.41447218    -1.90341299    -1.49940018
H     -1.44760684    -2.92120665     0.08298323
H     -1.88662941    -1.94090032     1.48996939
H     -3.46445934    -1.52859826    -0.31412478
H     -2.16428025    -1.16363261    -1.45528193
H     -2.52960484     0.49799438     1.06669666
H     -3.40502076     0.83729984    -0.43548914
H     -0.95162507     2.14855204     1.28749993
H      1.04741068     2.25862267    -1.02896270
H      1.24852261     3.06032176     0.61563474
H      3.24488744     0.45167592     0.76940732
H     -0.23530240    -0.51828593     2.52687863

