%chk=reactant_complex.chk
%mem=64GB
%nprocshared=16
#p B3LYP/def2SVP em=GD3BJ SCRF=(PCM,Solvent=Acetone) Opt=CalcFC Freq

reactant_complex

0 1
O      2.80437393    -0.77182886    -1.56940248
C      2.01339666    -0.73940966    -0.61954933
C      0.71146877    -1.37194580    -0.60759716
C     -0.12688323    -1.29797187     0.47840398
C     -1.50140342    -1.90258855     0.46993572
C     -2.46787412    -1.09629947    -0.40915989
C     -2.50249404     0.38499430    -0.01639787
C     -1.32719494     1.13233277    -0.62009524
O     -1.06503641     1.05068903    -1.80285730
C     -0.53365025     1.96688878     0.30792556
C      0.64964263     2.45831905    -0.04633124
C      2.30548382    -0.05977002     0.61636248
O      1.50260704    -0.04235907     1.64349671
C      0.32277502    -0.60990844     1.60865322
H      0.41447834    -1.90341120    -1.49940120
H     -1.44759616    -2.92121228     0.08298239
H     -1.88662232    -1.94090796     1.48996884
H     -3.46445441    -1.52861129    -0.31412446
H     -2.16427723    -1.16364114    -1.45528231
H     -2.52960632     0.49798480     1.06669628
H     -3.40502432     0.83728692    -0.43548902
H     -0.95163099     2.14854707     1.28749872
H      1.04740115     2.25862551    -1.02896659
H      1.24851271     3.06032483     0.61563074
H      3.24488574     0.45168681     0.76940646
H     -0.23530061    -0.51828724     2.52687799

