%chk=conf_002.chk
%nprocshared=16
%mem=32GB
#p B3LYP/def2SVP em=GD3BJ Opt SCF=(XQC,MaxCycle=256) Freq

-41.88051372

0 1
 O          3.0273319453        0.8547872603        1.3011999370
 C          2.0800306759        0.7064601617        0.5547083134
 C          0.8903733828        1.5525476861        0.5480569608
 C         -0.1343861629        1.2825138337       -0.2742867014
 C         -1.4488307822        1.9815866052       -0.2309502468
 C         -2.5769443508        0.9487211883       -0.0956431678
 C         -2.2253031041       -0.1470075496        0.9217211850
 C         -1.5697773165       -1.3619663753        0.3070920417
 O         -2.0002902809       -2.4731405530        0.5172074693
 C         -0.3407827065       -1.2089809237       -0.5709696084
 C          0.9621004217       -1.4843497795        0.2129746066
 C          1.9580925046       -0.4670461720       -0.4142187314
 O          1.3517074336       -0.0309682650       -1.6123471708
 C         -0.0023484875        0.1451076941       -1.2480704534
 H          0.8639954392        2.3759003641        1.2472800990
 H         -1.4681417717        2.6721805536        0.6130511676
 H         -1.5916613916        2.5590441229       -1.1474015775
 H         -2.7940225761        0.4888995996       -1.0607460059
 H         -3.4804934836        1.4622123479        0.2326125121
 H         -3.1264154335       -0.5034457046        1.4248157823
 H         -1.5549546183        0.2576867920        1.6839454107
 H         -0.4238695483       -1.9591963118       -1.3641373853
 H          0.8425534419       -1.3025336979        1.2819492615
 H          1.3022010730       -2.5076861922        0.0758402319
 H          2.9345266943       -0.8936523886       -0.6457427835
 H         -0.5711250831        0.3232036616       -2.1615975702


