%chk=conf_000.chk
%mem=4GB
%nprocshared=4
#p HF/STO-3G SCRF=(PCM,Solvent=Acetone) Opt=CalcFC Freq

ethylene_conf_000

0 1
C      0.65859320    -0.00000027     0.00000441
C     -0.65859334     0.00000048     0.00000574
H      1.22927640    -0.91463946     0.00000576
H      1.22927822     0.91463804    -0.00006199
H     -1.22927393     0.91463308     0.00000150
H     -1.22927894    -0.91463418    -0.00006625

