%chk=ts_guess.chk
%mem=64GB
%nprocshared=16
#p Opt=(TS, CalcFC, NoEigenTest) Freq

ts_guess

0 1
O      2.74130991    -0.45930841    -1.59513049
C      1.94722772    -0.50552134    -0.65798686
C      0.74249127    -1.31314145    -0.63758780
C     -0.15658103    -1.18985947     0.37491400
C     -1.48828456    -1.88025783     0.39555923
C     -2.54696510    -1.08369345    -0.38276909
C     -2.56165372     0.39280465     0.03099453
C     -1.30816345     1.04984671    -0.51563653
O     -1.10486932     1.10517492    -1.71213131
C     -0.33693783     1.56921535     0.46894790
C      0.90234784     1.99628959     0.01596096
C      2.14592916     0.27340573     0.56590984
O      1.43304688     0.04302634     1.66693244
C      0.17498765    -0.32427374     1.46238489
H      0.58348726    -1.99277867    -1.46011562
H     -1.39250969    -2.86846213    -0.05547052
H     -1.81860310    -1.99970833     1.42870416
H     -3.52546642    -1.53124638    -0.20642867
H     -2.33200401    -1.13416305    -1.45153891
H     -2.63079629     0.49409028     1.11276952
H     -3.42439824     0.87672839    -0.43089778
H     -0.72413239     1.91607218     1.41555325
H      1.10625160     1.95583741    -1.04147290
H      1.49773556     2.67324968     0.60455449
H      3.13281404     0.67050670     0.76484557
H     -0.40028674    -0.35430668     2.37832072

