%chk=ts_guess.chk
%mem=64GB
%nprocshared=16
#p Opt=(TS, CalcFC, NoEigenTest) Freq

ts_guess

0 1
O      2.74130970    -0.45931819    -1.59512752
C      1.94722646    -0.50552749    -0.65798482
C      0.74248747    -1.31314380    -0.63758590
C     -0.15658528    -1.18985808     0.37491498
C     -1.48829121    -1.88025191     0.39555980
C     -2.54696915    -1.08368386    -0.38276842
C     -2.56165195     0.39281450     0.03099453
C     -1.30815875     1.04985141    -0.51563590
O     -1.10486325     1.10517763    -1.71213065
C     -0.33693236     1.56921784     0.46894865
C      0.90235516     1.99628721     0.01596216
C      2.14593018     0.27339904     0.56591186
O      1.43304627     0.04302234     1.66693403
C      0.17498579    -0.32427313     1.46238580
H      0.58348228    -1.99278142    -1.46011281
H     -1.39251958    -2.86845648    -0.05547005
H     -1.81861014    -1.99970156     1.42870470
H     -3.52547208    -1.53123305    -0.20642712
H     -2.33200900    -1.13415500    -1.45153840
H     -2.63079466     0.49410060     1.11276947
H     -3.42439412     0.87674190    -0.43089848
H     -0.72412602     1.91607692     1.41555345
H      1.10625953     1.95583327    -1.04147136
H      1.49774463     2.67324571     0.60455560
H      3.13281652     0.67049618     0.76484815
H     -0.40028943    -0.35430358     2.37832124

